problems/csplib-prob015/SchursLemma-models/noch/O2/lingeling/model_1_2-5-10-solution000001.eprime-solution
language ESSENCE' 1.0

letting boxes_PartitionAsSet_ExplicitR6_ExplicitVarSizeWithDummy be
        [[1, 4, 6, 9, 11, 11, 11, 11, 11, 11; int(1..10)], [2, 3, 11, 11, 11, 11, 11, 11, 11, 11; int(1..10)],
         [5, 11, 11, 11, 11, 11, 11, 11, 11, 11; int(1..10)], [7, 11, 11, 11, 11, 11, 11, 11, 11, 11; int(1..10)],
         [8, 10, 11, 11, 11, 11, 11, 11, 11, 11; int(1..10)]; int(1..5)]
