problems/csplib-prob015/SchursLemma-models/noch/O2/lingeling/model_1_2-5-10-solution000001.solution
language Essence 1.3

letting boxes be partition({1, 4, 6, 9}, {2, 3}, {5}, {7}, {8, 10})
